NAME : n150w40.003.894.tour
COMMENT : Length = 894
COMMENT : Found by LKH [Keld Helsgaun] Tue May  2 05:48:16 2017
TYPE : TOUR
DIMENSION : 151
TOUR_SECTION
1
87
143
139
16
142
95
71
44
89
14
88
36
54
81
52
72
104
39
125
5
18
34
64
76
141
7
121
23
62
75
86
29
93
30
97
21
127
108
47
6
59
107
31
140
80
3
26
124
137
60
96
42
24
146
22
84
129
35
49
19
82
136
114
46
138
122
123
103
111
131
2
98
38
130
58
69
33
78
70
112
56
25
118
119
147
109
20
43
132
106
144
77
94
120
135
53
12
51
45
9
113
115
27
61
117
101
37
85
17
74
32
73
102
65
99
105
50
13
110
149
133
68
4
10
92
134
57
148
145
8
63
15
11
66
91
90
55
41
116
126
79
83
100
48
67
150
40
128
151
28
-1
EOF
